 &control
    calculation='scf'
    restart_mode='from_scratch',
    pseudo_dir = '.',
    outdir='./'
    prefix='Fe'
 /
 &system
    ibrav = 3, celldm(1) =5.4235, nat= 1, ntyp= 1,
    ecutwfc = 24.0
    lspinorb=.false.,
    noncolin=.false., 
    nspin=2,
    starting_magnetization(1) = -1
    occupations='smearing', smearing='cold', degauss=0.02
 /
 &electrons
    startingwfc='random'
    diagonalization='david'
    conv_thr=1.0e-13
 /
ATOMIC_SPECIES
 Fe 55.85 Fe.upf
ATOMIC_POSITIONS
 Fe 0.0 0.0 0.0
K_POINTS (automatic)
4 4 4 0 0 0

