generated by phonopy
1.0
2.2740000000000000 1.3128945121372089 3.9506666666666668
-2.2740000000000000 1.3128945121372089 3.9506666666666668
0.0000000000000000 -2.6257890242744177 3.9506666666666668
Bi
2
Direct
0.7630000000000002 0.7630000000000002 0.7630000000000002
0.2369999999999998 0.2369999999999998 0.2369999999999998 
