 num_wann =    20  ! set to NBANDS by VASP
num_bands: 20
spinors False

use_bloch_phases = T

begin unit_cell_cart
     4.2533000     0.0000000     0.0000000
     0.0000000     4.2533000     0.0000000
     0.0000000     0.0000000     4.5587000
end unit_cell_cart

begin atoms_cart
Na       0.0000000     0.0000000     0.0000000
As       2.1266500     2.1266500     2.2793500
end atoms_cart

mp_grid =     4     4     4

begin kpoints
      0.000000000000      0.000000000000      0.000000000000
      0.250000000000      0.000000000000      0.000000000000
      0.500000000000      0.000000000000      0.000000000000
      0.250000000000      0.250000000000      0.000000000000
      0.500000000000      0.250000000000      0.000000000000
      0.500000000000      0.500000000000      0.000000000000
      0.000000000000      0.000000000000      0.250000000000
      0.250000000000      0.000000000000      0.250000000000
      0.500000000000      0.000000000000      0.250000000000
      0.250000000000      0.250000000000      0.250000000000
      0.500000000000      0.250000000000      0.250000000000
      0.500000000000      0.500000000000      0.250000000000
      0.000000000000      0.000000000000      0.500000000000
      0.250000000000      0.000000000000      0.500000000000
      0.500000000000      0.000000000000      0.500000000000
      0.250000000000      0.250000000000      0.500000000000
      0.500000000000      0.250000000000      0.500000000000
      0.500000000000      0.500000000000      0.500000000000
     -0.250000000000      0.000000000000      0.000000000000
      0.000000000000      0.250000000000      0.000000000000
      0.000000000000     -0.250000000000      0.000000000000
      0.000000000000      0.500000000000      0.000000000000
     -0.250000000000     -0.250000000000      0.000000000000
     -0.250000000000      0.250000000000      0.000000000000
      0.250000000000     -0.250000000000      0.000000000000
     -0.500000000000     -0.250000000000      0.000000000000
     -0.250000000000      0.500000000000      0.000000000000
      0.250000000000     -0.500000000000      0.000000000000
      0.000000000000      0.000000000000     -0.250000000000
     -0.250000000000      0.000000000000     -0.250000000000
      0.000000000000      0.250000000000      0.250000000000
      0.000000000000     -0.250000000000     -0.250000000000
     -0.250000000000      0.000000000000      0.250000000000
      0.250000000000      0.000000000000     -0.250000000000
      0.000000000000     -0.250000000000      0.250000000000
      0.000000000000      0.250000000000     -0.250000000000
     -0.500000000000      0.000000000000     -0.250000000000
      0.000000000000      0.500000000000      0.250000000000
      0.000000000000     -0.500000000000     -0.250000000000
     -0.250000000000     -0.250000000000     -0.250000000000
     -0.250000000000      0.250000000000      0.250000000000
      0.250000000000     -0.250000000000     -0.250000000000
     -0.250000000000     -0.250000000000      0.250000000000
      0.250000000000      0.250000000000     -0.250000000000
      0.250000000000     -0.250000000000      0.250000000000
     -0.250000000000      0.250000000000     -0.250000000000
     -0.500000000000     -0.250000000000     -0.250000000000
     -0.250000000000      0.500000000000      0.250000000000
      0.250000000000     -0.500000000000     -0.250000000000
     -0.500000000000     -0.250000000000      0.250000000000
      0.500000000000      0.250000000000     -0.250000000000
      0.250000000000     -0.500000000000      0.250000000000
     -0.250000000000      0.500000000000     -0.250000000000
     -0.500000000000     -0.500000000000     -0.250000000000
     -0.250000000000      0.000000000000     -0.500000000000
      0.000000000000      0.250000000000      0.500000000000
      0.000000000000     -0.250000000000     -0.500000000000
      0.000000000000      0.500000000000      0.500000000000
     -0.250000000000     -0.250000000000     -0.500000000000
     -0.250000000000      0.250000000000      0.500000000000
      0.250000000000     -0.250000000000     -0.500000000000
     -0.500000000000     -0.250000000000     -0.500000000000
     -0.250000000000      0.500000000000      0.500000000000
      0.250000000000     -0.500000000000     -0.500000000000
end kpoints
