generated by phonopy
   1.0
     2.8260000000000001    0.0000000000000000    0.0000000000000000
    -1.4130000000000000    2.4473877910948234    0.0000000000000000
     0.0000000000000000    0.0000000000000000    3.9960000000000000
Na
   4
Direct
  0.0000000000000000  0.0000000000000000  0.0000000000000000
  0.0000000000000000  0.0000000000000000  0.5000000000000000
  0.3333333333333333  0.6666666666666666  0.2500000000000000
  0.6666666666666667  0.3333333333333334  0.7500000000000000
