Maximal k-points
6
Reciprocal
0.0  0.0  0.0   1.
0.0  0.5  0.0   1.
0.5  0.5  0.0   1.
0.0  0.0  0.5   1.
0.0  0.5  0.5   1.
0.5  0.5  0.5   1.
