generated by phonopy
   1.0
     5.3746000000000000    0.0000000000000000    0.0000000000000000
     0.0000000000000000    5.3746000000000000    0.0000000000000000
     0.0000000000000000    0.0000000000000000    3.6497999999999999
Gd B C
   2    4    4
Direct
  0.5000000000000000  0.5000000000000000  0.0000000000000000
  0.0000000000000000  0.0000000000000000  0.0000000000000000
  0.3601000000000001  0.8601000000000001  0.4999999999999999
  0.6398999999999999  0.1398999999999999  0.4999999999999999
  0.1398999999999999  0.3601000000000001  0.4999999999999999
  0.8601000000000001  0.6398999999999999  0.4999999999999999
  0.1612000000000001  0.6612000000000000  0.4999999999999999
  0.8388000000000000  0.3388000000000000  0.4999999999999999
  0.3388000000000000  0.1612000000000001  0.4999999999999999
  0.6612000000000000  0.8388000000000000  0.4999999999999999
