&CONTROL
   calculation     =  'bands',
   prefix          =  'SHLi',
   pseudo_dir = 'pseudo',
   outdir='out',
   restart_mode    =  'from_scratch',
   disk_io         = 'medium'
 /

 &SYSTEM
   ibrav           =  0,
   A               =  1.0,
   degauss         =  0.0001,
   ecutwfc         =  35,
   nat             =  6,
   ntyp            =  3,
   occupations     =  'smearing',
   smearing        =  'mv',
   lspinorb        = .TRUE.
   noncolin        = .TRUE.
 /

 &ELECTRONS
   startingpot = file
   mixing_beta = 0.3,
   conv_thr    = 1e-8,
 /

CELL_PARAMETERS alat
     6.1568699999999996    0.0000000000000000    0.0000000000000000
     0.0000000000000000    2.8092050000000000    2.7573900000000000
     0.0000000000000000   -2.8092050000000000    2.7573900000000000

ATOMIC_SPECIES
  S 32  Bi.upf
  H 1   Se.upf
  Li 7   Se.upf

ATOMIC_POSITIONS crystal
S  0.2500000000000000  0.5246599999999999  0.0012400000000001
S  0.7500000000000000  0.0012400000000000  0.5246600000000000
H  0.7500000000000000  0.0165100000000000  0.8669100000000001
H  0.2500000000000000  0.8669100000000001  0.0165100000000000
Li  0.0000000000000000  0.4983400000000000  0.4983400000000000
Li  0.5000000000000000  0.4983400000000000  0.4983400000000000

K_POINTS crystal
2
0.00    0.00    0.00    1.0
0.50    0.50    0.00    1.0
