T-GM
 100
line
reciprocal
  0.50000  0.50000  0.50000    1
  0.00000  0.00000  0.00000    1
