Adjusted to generate maximal k-points
0
Gamma
4 4 4
