generated by phonopy
   1.0
     4.2533000000000003    0.0000000000000000    0.0000000000000000
     0.0000000000000000    4.2533000000000003    0.0000000000000000
     0.0000000000000000    0.0000000000000000    4.5587000000000000
Na As
   1    1
Direct
  0.0000000000000000  0.0000000000000000  0.0000000000000000
  0.5000000000000000  0.5000000000000000  0.5000000000000000
